p wcnf 42 2301 2302
1 -1 -4 -6 -26 0
1 -1 -4 -6 -28 0
1 -1 -4 -6 -40 0
1 -1 -4 -6 -42 0
1 -1 -4 -20 -26 0
1 -1 -4 -20 -28 0
1 -1 -4 -20 -40 0
1 -1 -4 -20 -42 0
1 -1 -4 -26 -35 0
1 -1 -4 -26 -37 0
1 -1 -4 -28 -35 0
1 -1 -4 -28 -37 0
1 -1 -4 -35 -40 0
1 -1 -4 -35 -42 0
1 -1 -4 -37 -40 0
1 -1 -4 -37 -42 0
1 -1 -6 -14 -21 0
1 -1 -6 -14 -24 0
1 -1 -6 -14 -26 0
1 -1 -6 -14 -40 0
1 -1 -6 -21 -25 0
1 -1 -6 -21 -28 0
1 -1 -6 -22 -26 0
1 -1 -6 -22 -27 0
1 -1 -6 -24 -28 0
1 -1 -6 -24 -42 0
1 -1 -6 -25 -26 0
1 -1 -6 -25 -42 0
1 -1 -6 -27 -28 0
1 -1 -6 -27 -40 0
1 -1 -6 -27 -42 0
1 -1 -14 -16 -24 0
1 -1 -14 -16 -40 0
1 -1 -14 -20 -21 0
1 -1 -14 -20 -24 0
1 -1 -14 -20 -26 0
1 -1 -14 -20 -40 0
1 -1 -14 -21 -33 0
1 -1 -14 -24 -33 0
1 -1 -14 -26 -33 0
1 -1 -14 -33 -40 0
1 -1 -16 -19 -25 0
1 -1 -16 -19 -35 0
1 -1 -16 -24 -35 0
1 -1 -16 -24 -37 0
1 -1 -16 -25 -37 0
1 -1 -16 -35 -40 0
1 -1 -16 -37 -40 0
1 -1 -19 -20 -21 0
1 -1 -19 -20 -22 0
1 -1 -19 -20 -42 0
1 -1 -19 -21 -25 0
1 -1 -19 -21 -35 0
1 -1 -19 -22 -27 0
1 -1 -19 -25 -42 0
1 -1 -19 -27 -42 0
1 -1 -19 -35 -42 0
1 -1 -20 -21 -28 0
1 -1 -20 -22 -26 0
1 -1 -20 -22 -36 0
1 -1 -20 -24 -28 0
1 -1 -20 -24 -42 0
1 -1 -20 -36 -40 0
1 -1 -20 -36 -42 0
1 -1 -21 -25 -37 0
1 -1 -21 -28 -35 0
1 -1 -21 -28 -37 0
1 -1 -21 -33 -35 0
1 -1 -21 -33 -37 0
1 -1 -22 -26 -33 0
1 -1 -22 -27 -36 0
1 -1 -24 -28 -35 0
1 -1 -24 -28 -37 0
1 -1 -24 -33 -35 0
1 -1 -24 -33 -37 0
1 -1 -24 -35 -42 0
1 -1 -24 -37 -42 0
1 -1 -25 -26 -37 0
1 -1 -25 -36 -42 0
1 -1 -25 -37 -42 0
1 -1 -26 -33 -35 0
1 -1 -26 -33 -37 0
1 -1 -27 -28 -37 0
1 -1 -27 -36 -40 0
1 -1 -27 -36 -42 0
1 -1 -27 -37 -40 0
1 -1 -27 -37 -42 0
1 -1 -33 -35 -40 0
1 -1 -33 -37 -40 0
1 -1 -35 -36 -40 0
1 -1 -35 -36 -42 0
1 -2 -3 -5 -25 0
1 -2 -3 -5 -27 0
1 -2 -3 -5 -39 0
1 -2 -3 -5 -41 0
1 -2 -3 -19 -25 0
1 -2 -3 -19 -27 0
1 -2 -3 -19 -39 0
1 -2 -3 -19 -41 0
1 -2 -3 -25 -36 0
1 -2 -3 -25 -38 0
1 -2 -3 -27 -36 0
1 -2 -3 -27 -38 0
1 -2 -3 -36 -39 0
1 -2 -3 -36 -41 0
1 -2 -3 -38 -39 0
1 -2 -3 -38 -41 0
1 -2 -5 -13 -22 0
1 -2 -5 -13 -23 0
1 -2 -5 -13 -25 0
1 -2 -5 -13 -39 0
1 -2 -5 -21 -25 0
1 -2 -5 -21 -28 0
1 -2 -5 -22 -26 0
1 -2 -5 -22 -27 0
1 -2 -5 -23 -27 0
1 -2 -5 -23 -41 0
1 -2 -5 -25 -26 0
1 -2 -5 -26 -41 0
1 -2 -5 -27 -28 0
1 -2 -5 -28 -39 0
1 -2 -5 -28 -41 0
1 -2 -13 -15 -23 0
1 -2 -13 -15 -39 0
1 -2 -13 -19 -22 0
1 -2 -13 -19 -23 0
1 -2 -13 -19 -25 0
1 -2 -13 -19 -39 0
1 -2 -13 -22 -34 0
1 -2 -13 -23 -34 0
1 -2 -13 -25 -34 0
1 -2 -13 -34 -39 0
1 -2 -15 -20 -26 0
1 -2 -15 -20 -36 0
1 -2 -15 -23 -36 0
1 -2 -15 -23 -38 0
1 -2 -15 -26 -38 0
1 -2 -15 -36 -39 0
1 -2 -15 -38 -39 0
1 -2 -19 -20 -21 0
1 -2 -19 -20 -22 0
1 -2 -19 -20 -41 0
1 -2 -19 -21 -25 0
1 -2 -19 -21 -35 0
1 -2 -19 -22 -27 0
1 -2 -19 -23 -27 0
1 -2 -19 -23 -41 0
1 -2 -19 -35 -39 0
1 -2 -19 -35 -41 0
1 -2 -20 -21 -28 0
1 -2 -20 -22 -26 0
1 -2 -20 -22 -36 0
1 -2 -20 -26 -41 0
1 -2 -20 -28 -41 0
1 -2 -20 -36 -41 0
1 -2 -21 -25 -34 0
1 -2 -21 -28 -35 0
1 -2 -22 -26 -38 0
1 -2 -22 -27 -36 0
1 -2 -22 -27 -38 0
1 -2 -22 -34 -36 0
1 -2 -22 -34 -38 0
1 -2 -23 -27 -36 0
1 -2 -23 -27 -38 0
1 -2 -23 -34 -36 0
1 -2 -23 -34 -38 0
1 -2 -23 -36 -41 0
1 -2 -23 -38 -41 0
1 -2 -25 -26 -38 0
1 -2 -25 -34 -36 0
1 -2 -25 -34 -38 0
1 -2 -26 -35 -41 0
1 -2 -26 -38 -41 0
1 -2 -27 -28 -38 0
1 -2 -28 -35 -39 0
1 -2 -28 -35 -41 0
1 -2 -28 -38 -39 0
1 -2 -28 -38 -41 0
1 -2 -34 -36 -39 0
1 -2 -34 -38 -39 0
1 -2 -35 -36 -39 0
1 -2 -35 -36 -41 0
1 -3 -5 -6 -24 0
1 -3 -5 -6 -25 0
1 -3 -5 -6 -27 0
1 -3 -5 -17 -25 0
1 -3 -5 -17 -27 0
1 -3 -5 -17 -39 0
1 -3 -5 -17 -41 0
1 -3 -5 -24 -37 0
1 -3 -5 -24 -39 0
1 -3 -5 -24 -41 0
1 -3 -5 -25 -37 0
1 -3 -5 -27 -37 0
1 -3 -6 -24 -42 0
1 -3 -6 -25 -38 0
1 -3 -6 -25 -42 0
1 -3 -6 -27 -38 0
1 -3 -6 -27 -40 0
1 -3 -6 -27 -42 0
1 -3 -9 -17 -25 0
1 -3 -9 -17 -31 0
1 -3 -9 -17 -39 0
1 -3 -9 -24 -37 0
1 -3 -9 -24 -39 0
1 -3 -9 -25 -36 0
1 -3 -9 -25 -37 0
1 -3 -9 -25 -38 0
1 -3 -9 -31 -36 0
1 -3 -9 -31 -37 0
1 -3 -9 -31 -38 0
1 -3 -9 -36 -39 0
1 -3 -9 -38 -39 0
1 -3 -11 -16 -25 0
1 -3 -11 -16 -31 0
1 -3 -11 -16 -39 0
1 -3 -11 -16 -40 0
1 -3 -11 -17 -25 0
1 -3 -11 -17 -31 0
1 -3 -11 -17 -39 0
1 -3 -11 -25 -36 0
1 -3 -11 -25 -38 0
1 -3 -11 -31 -36 0
1 -3 -11 -31 -38 0
1 -3 -11 -36 -39 0
1 -3 -11 -36 -40 0
1 -3 -11 -38 -39 0
1 -3 -16 -19 -25 0
1 -3 -16 -19 -39 0
1 -3 -16 -19 -41 0
1 -3 -16 -24 -37 0
1 -3 -16 -24 -39 0
1 -3 -16 -24 -41 0
1 -3 -16 -25 -37 0
1 -3 -16 -31 -37 0
1 -3 -16 -31 -41 0
1 -3 -16 -37 -40 0
1 -3 -16 -40 -41 0
1 -3 -17 -19 -25 0
1 -3 -17 -19 -27 0
1 -3 -17 -19 -39 0
1 -3 -17 -19 -41 0
1 -3 -17 -27 -31 0
1 -3 -17 -31 -41 0
1 -3 -19 -25 -42 0
1 -3 -19 -27 -42 0
1 -3 -19 -39 -42 0
1 -3 -19 -41 -42 0
1 -3 -24 -37 -42 0
1 -3 -24 -39 -42 0
1 -3 -24 -41 -42 0
1 -3 -25 -36 -42 0
1 -3 -25 -37 -42 0
1 -3 -27 -31 -36 0
1 -3 -27 -31 -37 0
1 -3 -27 -31 -38 0
1 -3 -27 -36 -40 0
1 -3 -27 -36 -42 0
1 -3 -27 -37 -40 0
1 -3 -27 -37 -42 0
1 -3 -31 -36 -41 0
1 -3 -31 -38 -41 0
1 -3 -36 -39 -42 0
1 -3 -36 -40 -41 0
1 -3 -36 -41 -42 0
1 -4 -5 -6 -23 0
1 -4 -5 -6 -26 0
1 -4 -5 -6 -28 0
1 -4 -5 -23 -41 0
1 -4 -5 -26 -37 0
1 -4 -5 -26 -41 0
1 -4 -5 -28 -37 0
1 -4 -5 -28 -39 0
1 -4 -5 -28 -41 0
1 -4 -6 -18 -26 0
1 -4 -6 -18 -28 0
1 -4 -6 -18 -40 0
1 -4 -6 -18 -42 0
1 -4 -6 -23 -38 0
1 -4 -6 -23 -40 0
1 -4 -6 -23 -42 0
1 -4 -6 -26 -38 0
1 -4 -6 -28 -38 0
1 -4 -10 -18 -26 0
1 -4 -10 -18 -32 0
1 -4 -10 -18 -40 0
1 -4 -10 -23 -38 0
1 -4 -10 -23 -40 0
1 -4 -10 -26 -35 0
1 -4 -10 -26 -37 0
1 -4 -10 -26 -38 0
1 -4 -10 -32 -35 0
1 -4 -10 -32 -37 0
1 -4 -10 -32 -38 0
1 -4 -10 -35 -40 0
1 -4 -10 -37 -40 0
1 -4 -12 -15 -26 0
1 -4 -12 -15 -32 0
1 -4 -12 -15 -39 0
1 -4 -12 -15 -40 0
1 -4 -12 -18 -26 0
1 -4 -12 -18 -32 0
1 -4 -12 -18 -40 0
1 -4 -12 -26 -35 0
1 -4 -12 -26 -37 0
1 -4 -12 -32 -35 0
1 -4 -12 -32 -37 0
1 -4 -12 -35 -39 0
1 -4 -12 -35 -40 0
1 -4 -12 -37 -40 0
1 -4 -15 -20 -26 0
1 -4 -15 -20 -40 0
1 -4 -15 -20 -42 0
1 -4 -15 -23 -38 0
1 -4 -15 -23 -40 0
1 -4 -15 -23 -42 0
1 -4 -15 -26 -38 0
1 -4 -15 -32 -38 0
1 -4 -15 -32 -42 0
1 -4 -15 -38 -39 0
1 -4 -15 -39 -42 0
1 -4 -18 -20 -26 0
1 -4 -18 -20 -28 0
1 -4 -18 -20 -40 0
1 -4 -18 -20 -42 0
1 -4 -18 -28 -32 0
1 -4 -18 -32 -42 0
1 -4 -20 -26 -41 0
1 -4 -20 -28 -41 0
1 -4 -20 -40 -41 0
1 -4 -20 -41 -42 0
1 -4 -23 -38 -41 0
1 -4 -23 -40 -41 0
1 -4 -23 -41 -42 0
1 -4 -26 -35 -41 0
1 -4 -26 -38 -41 0
1 -4 -28 -32 -35 0
1 -4 -28 -32 -37 0
1 -4 -28 -32 -38 0
1 -4 -28 -35 -39 0
1 -4 -28 -35 -41 0
1 -4 -28 -38 -39 0
1 -4 -28 -38 -41 0
1 -4 -32 -35 -42 0
1 -4 -32 -37 -42 0
1 -4 -35 -39 -42 0
1 -4 -35 -40 -41 0
1 -4 -35 -41 -42 0
1 -5 -6 -21 -25 0
1 -5 -6 -21 -28 0
1 -5 -6 -22 -26 0
1 -5 -6 -22 -27 0
1 -5 -6 -23 -27 0
1 -5 -6 -24 -28 0
1 -5 -6 -25 -26 0
1 -5 -6 -27 -28 0
1 -5 -13 -17 -25 0
1 -5 -13 -17 -29 0
1 -5 -13 -17 -39 0
1 -5 -13 -22 -29 0
1 -5 -13 -23 -29 0
1 -5 -13 -24 -37 0
1 -5 -13 -24 -39 0
1 -5 -13 -25 -37 0
1 -5 -13 -29 -37 0
1 -5 -17 -21 -25 0
1 -5 -17 -21 -28 0
1 -5 -17 -21 -29 0
1 -5 -17 -21 -33 0
1 -5 -17 -27 -28 0
1 -5 -17 -27 -29 0
1 -5 -17 -28 -39 0
1 -5 -17 -28 -41 0
1 -5 -17 -29 -41 0
1 -5 -17 -33 -39 0
1 -5 -17 -33 -41 0
1 -5 -21 -25 -37 0
1 -5 -21 -28 -37 0
1 -5 -21 -29 -37 0
1 -5 -21 -33 -37 0
1 -5 -22 -26 -29 0
1 -5 -22 -26 -33 0
1 -5 -22 -27 -29 0
1 -5 -23 -27 -29 0
1 -5 -23 -29 -41 0
1 -5 -24 -28 -37 0
1 -5 -24 -28 -39 0
1 -5 -24 -28 -41 0
1 -5 -24 -33 -37 0
1 -5 -24 -33 -39 0
1 -5 -24 -33 -41 0
1 -5 -25 -26 -37 0
1 -5 -26 -29 -37 0
1 -5 -26 -29 -41 0
1 -5 -26 -33 -37 0
1 -5 -26 -33 -41 0
1 -5 -27 -28 -37 0
1 -5 -27 -29 -37 0
1 -6 -14 -18 -26 0
1 -6 -14 -18 -30 0
1 -6 -14 -18 -40 0
1 -6 -14 -21 -30 0
1 -6 -14 -23 -38 0
1 -6 -14 -23 -40 0
1 -6 -14 -24 -30 0
1 -6 -14 -26 -38 0
1 -6 -14 -30 -38 0
1 -6 -18 -22 -26 0
1 -6 -18 -22 -27 0
1 -6 -18 -22 -30 0
1 -6 -18 -22 -34 0
1 -6 -18 -27 -28 0
1 -6 -18 -27 -40 0
1 -6 -18 -27 -42 0
1 -6 -18 -28 -30 0
1 -6 -18 -30 -42 0
1 -6 -18 -34 -40 0
1 -6 -18 -34 -42 0
1 -6 -21 -25 -30 0
1 -6 -21 -25 -34 0
1 -6 -21 -28 -30 0
1 -6 -22 -26 -38 0
1 -6 -22 -27 -38 0
1 -6 -22 -30 -38 0
1 -6 -22 -34 -38 0
1 -6 -23 -27 -38 0
1 -6 -23 -27 -40 0
1 -6 -23 -27 -42 0
1 -6 -23 -34 -38 0
1 -6 -23 -34 -40 0
1 -6 -23 -34 -42 0
1 -6 -24 -28 -30 0
1 -6 -24 -30 -42 0
1 -6 -25 -26 -38 0
1 -6 -25 -30 -38 0
1 -6 -25 -30 -42 0
1 -6 -25 -34 -38 0
1 -6 -25 -34 -42 0
1 -6 -27 -28 -38 0
1 -6 -28 -30 -38 0
1 -7 -8 -11 -15 0
1 -7 -8 -11 -16 0
1 -7 -8 -11 -17 0
1 -7 -8 -11 -34 0
1 -7 -8 -12 -15 0
1 -7 -8 -12 -16 0
1 -7 -8 -12 -18 0
1 -7 -8 -12 -33 0
1 -7 -8 -15 -20 0
1 -7 -8 -15 -23 0
1 -7 -8 -16 -19 0
1 -7 -8 -16 -24 0
1 -7 -8 -17 -18 0
1 -7 -8 -17 -19 0
1 -7 -8 -17 -33 0
1 -7 -8 -18 -20 0
1 -7 -8 -18 -34 0
1 -7 -8 -19 -20 0
1 -7 -8 -19 -23 0
1 -7 -8 -20 -24 0
1 -7 -8 -23 -34 0
1 -7 -8 -24 -33 0
1 -7 -8 -33 -34 0
1 -7 -10 -11 -14 0
1 -7 -10 -11 -17 0
1 -7 -10 -11 -32 0
1 -7 -10 -11 -34 0
1 -7 -10 -14 -18 0
1 -7 -10 -14 -23 0
1 -7 -10 -14 -33 0
1 -7 -10 -17 -18 0
1 -7 -10 -17 -33 0
1 -7 -10 -18 -32 0
1 -7 -10 -18 -34 0
1 -7 -10 -23 -34 0
1 -7 -10 -32 -33 0
1 -7 -10 -33 -34 0
1 -7 -11 -14 -15 0
1 -7 -11 -14 -16 0
1 -7 -11 -14 -21 0
1 -7 -11 -15 -32 0
1 -7 -11 -15 -39 0
1 -7 -11 -16 -32 0
1 -7 -11 -16 -39 0
1 -7 -11 -17 -21 0
1 -7 -11 -17 -39 0
1 -7 -11 -21 -32 0
1 -7 -11 -21 -34 0
1 -7 -11 -34 -39 0
1 -7 -12 -14 -15 0
1 -7 -12 -14 -16 0
1 -7 -12 -14 -18 0
1 -7 -12 -14 -33 0
1 -7 -12 -15 -32 0
1 -7 -12 -15 -39 0
1 -7 -12 -16 -32 0
1 -7 -12 -16 -39 0
1 -7 -12 -18 -32 0
1 -7 -12 -32 -33 0
1 -7 -12 -33 -39 0
1 -7 -14 -15 -20 0
1 -7 -14 -15 -23 0
1 -7 -14 -16 -24 0
1 -7 -14 -18 -20 0
1 -7 -14 -20 -21 0
1 -7 -14 -20 -24 0
1 -7 -14 -21 -33 0
1 -7 -14 -24 -33 0
1 -7 -15 -20 -42 0
1 -7 -15 -23 -42 0
1 -7 -15 -32 -42 0
1 -7 -15 -39 -42 0
1 -7 -16 -19 -32 0
1 -7 -16 -19 -39 0
1 -7 -16 -24 -32 0
1 -7 -16 -24 -39 0
1 -7 -17 -18 -28 0
1 -7 -17 -19 -21 0
1 -7 -17 -19 -39 0
1 -7 -17 -21 -28 0
1 -7 -17 -21 -33 0
1 -7 -17 -28 -39 0
1 -7 -17 -33 -39 0
1 -7 -18 -20 -28 0
1 -7 -18 -20 -42 0
1 -7 -18 -28 -32 0
1 -7 -18 -32 -42 0
1 -7 -18 -34 -42 0
1 -7 -19 -20 -21 0
1 -7 -19 -20 -42 0
1 -7 -19 -21 -32 0
1 -7 -19 -23 -42 0
1 -7 -19 -32 -42 0
1 -7 -19 -39 -42 0
1 -7 -20 -21 -28 0
1 -7 -20 -24 -28 0
1 -7 -20 -24 -42 0
1 -7 -21 -28 -32 0
1 -7 -21 -32 -33 0
1 -7 -21 -33 -34 0
1 -7 -23 -34 -42 0
1 -7 -24 -28 -32 0
1 -7 -24 -28 -39 0
1 -7 -24 -32 -33 0
1 -7 -24 -32 -42 0
1 -7 -24 -33 -39 0
1 -7 -24 -39 -42 0
1 -7 -33 -34 -39 0
1 -7 -34 -39 -42 0
1 -8 -9 -12 -13 0
1 -8 -9 -12 -18 0
1 -8 -9 -12 -31 0
1 -8 -9 -12 -33 0
1 -8 -9 -13 -17 0
1 -8 -9 -13 -24 0
1 -8 -9 -13 -34 0
1 -8 -9 -17 -18 0
1 -8 -9 -17 -31 0
1 -8 -9 -17 -33 0
1 -8 -9 -18 -34 0
1 -8 -9 -24 -33 0
1 -8 -9 -31 -34 0
1 -8 -9 -33 -34 0
1 -8 -11 -13 -15 0
1 -8 -11 -13 -16 0
1 -8 -11 -13 -17 0
1 -8 -11 -13 -34 0
1 -8 -11 -15 -31 0
1 -8 -11 -15 -40 0
1 -8 -11 -16 -31 0
1 -8 -11 -16 -40 0
1 -8 -11 -17 -31 0
1 -8 -11 -31 -34 0
1 -8 -11 -34 -40 0
1 -8 -12 -13 -15 0
1 -8 -12 -13 -16 0
1 -8 -12 -13 -22 0
1 -8 -12 -15 -31 0
1 -8 -12 -15 -40 0
1 -8 -12 -16 -31 0
1 -8 -12 -16 -40 0
1 -8 -12 -18 -22 0
1 -8 -12 -18 -40 0
1 -8 -12 -22 -31 0
1 -8 -12 -22 -33 0
1 -8 -12 -33 -40 0
1 -8 -13 -15 -23 0
1 -8 -13 -16 -19 0
1 -8 -13 -16 -24 0
1 -8 -13 -17 -19 0
1 -8 -13 -19 -22 0
1 -8 -13 -19 -23 0
1 -8 -13 -22 -34 0
1 -8 -13 -23 -34 0
1 -8 -15 -20 -31 0
1 -8 -15 -20 -40 0
1 -8 -15 -23 -31 0
1 -8 -15 -23 -40 0
1 -8 -16 -19 -41 0
1 -8 -16 -24 -41 0
1 -8 -16 -31 -41 0
1 -8 -16 -40 -41 0
1 -8 -17 -18 -27 0
1 -8 -17 -19 -27 0
1 -8 -17 -19 -41 0
1 -8 -17 -27 -31 0
1 -8 -17 -31 -41 0
1 -8 -17 -33 -41 0
1 -8 -18 -20 -22 0
1 -8 -18 -20 -40 0
1 -8 -18 -22 -27 0
1 -8 -18 -22 -34 0
1 -8 -18 -27 -40 0
1 -8 -18 -34 -40 0
1 -8 -19 -20 -22 0
1 -8 -19 -20 -41 0
1 -8 -19 -22 -27 0
1 -8 -19 -23 -27 0
1 -8 -19 -23 -41 0
1 -8 -20 -22 -31 0
1 -8 -20 -24 -41 0
1 -8 -20 -31 -41 0
1 -8 -20 -40 -41 0
1 -8 -22 -27 -31 0
1 -8 -22 -31 -34 0
1 -8 -22 -33 -34 0
1 -8 -23 -27 -31 0
1 -8 -23 -27 -40 0
1 -8 -23 -31 -34 0
1 -8 -23 -31 -41 0
1 -8 -23 -34 -40 0
1 -8 -23 -40 -41 0
1 -8 -24 -33 -41 0
1 -8 -33 -34 -40 0
1 -8 -33 -40 -41 0
1 -9 -10 -17 -18 0
1 -9 -10 -17 -29 0
1 -9 -10 -17 -33 0
1 -9 -10 -18 -30 0
1 -9 -10 -18 -34 0
1 -9 -10 -29 -30 0
1 -9 -10 -29 -34 0
1 -9 -10 -29 -37 0
1 -9 -10 -30 -33 0
1 -9 -10 -30 -38 0
1 -9 -10 -33 -34 0
1 -9 -10 -33 -37 0
1 -9 -10 -34 -38 0
1 -9 -12 -13 -30 0
1 -9 -12 -13 -37 0
1 -9 -12 -13 -39 0
1 -9 -12 -18 -30 0
1 -9 -12 -18 -36 0
1 -9 -12 -30 -31 0
1 -9 -12 -30 -33 0
1 -9 -12 -31 -36 0
1 -9 -12 -31 -37 0
1 -9 -12 -33 -37 0
1 -9 -12 -33 -39 0
1 -9 -12 -36 -39 0
1 -9 -13 -17 -25 0
1 -9 -13 -17 -29 0
1 -9 -13 -17 -39 0
1 -9 -13 -24 -30 0
1 -9 -13 -24 -37 0
1 -9 -13 -24 -39 0
1 -9 -13 -25 -30 0
1 -9 -13 -25 -34 0
1 -9 -13 -25 -37 0
1 -9 -13 -29 -30 0
1 -9 -13 -29 -34 0
1 -9 -13 -29 -37 0
1 -9 -13 -34 -39 0
1 -9 -17 -18 -28 0
1 -9 -17 -21 -25 0
1 -9 -17 -21 -28 0
1 -9 -17 -21 -29 0
1 -9 -17 -21 -33 0
1 -9 -17 -28 -39 0
1 -9 -17 -29 -31 0
1 -9 -17 -33 -39 0
1 -9 -18 -28 -30 0
1 -9 -18 -34 -36 0
1 -9 -21 -25 -30 0
1 -9 -21 -25 -34 0
1 -9 -21 -25 -37 0
1 -9 -21 -28 -30 0
1 -9 -21 -28 -37 0
1 -9 -21 -29 -30 0
1 -9 -21 -29 -34 0
1 -9 -21 -29 -37 0
1 -9 -21 -30 -33 0
1 -9 -21 -33 -34 0
1 -9 -21 -33 -37 0
1 -9 -24 -28 -30 0
1 -9 -24 -28 -37 0
1 -9 -24 -28 -39 0
1 -9 -24 -30 -33 0
1 -9 -24 -33 -37 0
1 -9 -24 -33 -39 0
1 -9 -25 -30 -38 0
1 -9 -25 -34 -36 0
1 -9 -25 -34 -38 0
1 -9 -28 -30 -38 0
1 -9 -28 -38 -39 0
1 -9 -29 -30 -31 0
1 -9 -29 -31 -34 0
1 -9 -29 -31 -37 0
1 -9 -30 -31 -38 0
1 -9 -31 -34 -36 0
1 -9 -31 -34 -38 0
1 -9 -33 -34 -39 0
1 -9 -34 -36 -39 0
1 -9 -34 -38 -39 0
1 -10 -11 -14 -29 0
1 -10 -11 -14 -38 0
1 -10 -11 -14 -40 0
1 -10 -11 -17 -29 0
1 -10 -11 -17 -35 0
1 -10 -11 -29 -32 0
1 -10 -11 -29 -34 0
1 -10 -11 -32 -35 0
1 -10 -11 -32 -38 0
1 -10 -11 -34 -38 0
1 -10 -11 -34 -40 0
1 -10 -11 -35 -40 0
1 -10 -14 -18 -26 0
1 -10 -14 -18 -30 0
1 -10 -14 -18 -40 0
1 -10 -14 -23 -29 0
1 -10 -14 -23 -38 0
1 -10 -14 -23 -40 0
1 -10 -14 -26 -29 0
1 -10 -14 -26 -33 0
1 -10 -14 -26 -38 0
1 -10 -14 -29 -30 0
1 -10 -14 -30 -33 0
1 -10 -14 -30 -38 0
1 -10 -14 -33 -40 0
1 -10 -17 -18 -27 0
1 -10 -17 -27 -29 0
1 -10 -17 -33 -35 0
1 -10 -18 -22 -26 0
1 -10 -18 -22 -27 0
1 -10 -18 -22 -30 0
1 -10 -18 -22 -34 0
1 -10 -18 -27 -40 0
1 -10 -18 -30 -32 0
1 -10 -18 -34 -40 0
1 -10 -22 -26 -29 0
1 -10 -22 -26 -33 0
1 -10 -22 -26 -38 0
1 -10 -22 -27 -29 0
1 -10 -22 -27 -38 0
1 -10 -22 -29 -30 0
1 -10 -22 -29 -34 0
1 -10 -22 -30 -33 0
1 -10 -22 -30 -38 0
1 -10 -22 -33 -34 0
1 -10 -22 -34 -38 0
1 -10 -23 -27 -29 0
1 -10 -23 -27 -38 0
1 -10 -23 -27 -40 0
1 -10 -23 -29 -34 0
1 -10 -23 -34 -38 0
1 -10 -23 -34 -40 0
1 -10 -26 -29 -37 0
1 -10 -26 -33 -35 0
1 -10 -26 -33 -37 0
1 -10 -27 -29 -37 0
1 -10 -27 -37 -40 0
1 -10 -29 -30 -32 0
1 -10 -29 -32 -37 0
1 -10 -30 -32 -33 0
1 -10 -30 -32 -38 0
1 -10 -32 -33 -35 0
1 -10 -32 -33 -37 0
1 -10 -33 -34 -40 0
1 -10 -33 -35 -40 0
1 -10 -33 -37 -40 0
1 -11 -13 -15 -29 0
1 -11 -13 -15 -39 0
1 -11 -13 -16 -25 0
1 -11 -13 -16 -29 0
1 -11 -13 -16 -39 0
1 -11 -13 -17 -25 0
1 -11 -13 -17 -29 0
1 -11 -13 -17 -39 0
1 -11 -13 -25 -34 0
1 -11 -13 -29 -34 0
1 -11 -13 -34 -39 0
1 -11 -14 -15 -29 0
1 -11 -14 -15 -38 0
1 -11 -14 -15 -40 0
1 -11 -14 -16 -29 0
1 -11 -14 -16 -40 0
1 -11 -14 -21 -29 0
1 -11 -15 -29 -31 0
1 -11 -15 -29 -32 0
1 -11 -15 -31 -36 0
1 -11 -15 -31 -38 0
1 -11 -15 -32 -36 0
1 -11 -15 -32 -38 0
1 -11 -15 -36 -39 0
1 -11 -15 -36 -40 0
1 -11 -15 -38 -39 0
1 -11 -16 -25 -32 0
1 -11 -16 -29 -31 0
1 -11 -16 -29 -32 0
1 -11 -16 -31 -35 0
1 -11 -16 -32 -35 0
1 -11 -16 -35 -39 0
1 -11 -16 -35 -40 0
1 -11 -17 -21 -25 0
1 -11 -17 -21 -29 0
1 -11 -17 -21 -35 0
1 -11 -17 -29 -31 0
1 -11 -17 -31 -35 0
1 -11 -17 -35 -39 0
1 -11 -21 -25 -32 0
1 -11 -21 -25 -34 0
1 -11 -21 -29 -32 0
1 -11 -21 -29 -34 0
1 -11 -21 -32 -35 0
1 -11 -25 -32 -36 0
1 -11 -25 -32 -38 0
1 -11 -25 -34 -36 0
1 -11 -25 -34 -38 0
1 -11 -29 -31 -34 0
1 -11 -31 -34 -36 0
1 -11 -31 -34 -38 0
1 -11 -31 -35 -36 0
1 -11 -32 -35 -36 0
1 -11 -34 -36 -39 0
1 -11 -34 -36 -40 0
1 -11 -34 -38 -39 0
1 -11 -35 -36 -39 0
1 -11 -35 -36 -40 0
1 -12 -13 -15 -30 0
1 -12 -13 -15 -39 0
1 -12 -13 -16 -30 0
1 -12 -13 -16 -37 0
1 -12 -13 -16 -39 0
1 -12 -13 -22 -30 0
1 -12 -14 -15 -26 0
1 -12 -14 -15 -30 0
1 -12 -14 -15 -40 0
1 -12 -14 -16 -30 0
1 -12 -14 -16 -40 0
1 -12 -14 -18 -26 0
1 -12 -14 -18 -30 0
1 -12 -14 -18 -40 0
1 -12 -14 -26 -33 0
1 -12 -14 -30 -33 0
1 -12 -14 -33 -40 0
1 -12 -15 -26 -31 0
1 -12 -15 -30 -31 0
1 -12 -15 -30 -32 0
1 -12 -15 -31 -36 0
1 -12 -15 -32 -36 0
1 -12 -15 -36 -39 0
1 -12 -15 -36 -40 0
1 -12 -16 -30 -31 0
1 -12 -16 -30 -32 0
1 -12 -16 -31 -35 0
1 -12 -16 -31 -37 0
1 -12 -16 -32 -35 0
1 -12 -16 -32 -37 0
1 -12 -16 -35 -39 0
1 -12 -16 -35 -40 0
1 -12 -16 -37 -40 0
1 -12 -18 -22 -26 0
1 -12 -18 -22 -30 0
1 -12 -18 -22 -36 0
1 -12 -18 -30 -32 0
1 -12 -18 -32 -36 0
1 -12 -18 -36 -40 0
1 -12 -22 -26 -31 0
1 -12 -22 -26 -33 0
1 -12 -22 -30 -31 0
1 -12 -22 -30 -33 0
1 -12 -22 -31 -36 0
1 -12 -26 -31 -35 0
1 -12 -26 -31 -37 0
1 -12 -26 -33 -35 0
1 -12 -26 -33 -37 0
1 -12 -30 -32 -33 0
1 -12 -31 -35 -36 0
1 -12 -32 -33 -35 0
1 -12 -32 -33 -37 0
1 -12 -32 -35 -36 0
1 -12 -33 -35 -39 0
1 -12 -33 -35 -40 0
1 -12 -33 -37 -40 0
1 -12 -35 -36 -39 0
1 -12 -35 -36 -40 0
1 -13 -15 -23 -29 0
1 -13 -15 -23 -42 0
1 -13 -15 -29 -30 0
1 -13 -15 -30 -42 0
1 -13 -15 -39 -42 0
1 -13 -16 -19 -25 0
1 -13 -16 -19 -29 0
1 -13 -16 -19 -39 0
1 -13 -16 -24 -30 0
1 -13 -16 -24 -37 0
1 -13 -16 -24 -39 0
1 -13 -16 -25 -30 0
1 -13 -16 -25 -37 0
1 -13 -16 -29 -30 0
1 -13 -16 -29 -37 0
1 -13 -17 -19 -25 0
1 -13 -17 -19 -29 0
1 -13 -17 -19 -39 0
1 -13 -19 -22 -29 0
1 -13 -19 -23 -29 0
1 -13 -19 -23 -42 0
1 -13 -19 -25 -42 0
1 -13 -19 -39 -42 0
1 -13 -22 -29 -30 0
1 -13 -22 -29 -34 0
1 -13 -23 -29 -34 0
1 -13 -23 -34 -42 0
1 -13 -24 -30 -42 0
1 -13 -24 -37 -42 0
1 -13 -24 -39 -42 0
1 -13 -25 -30 -42 0
1 -13 -25 -34 -42 0
1 -13 -25 -37 -42 0
1 -13 -34 -39 -42 0
1 -14 -15 -20 -26 0
1 -14 -15 -20 -30 0
1 -14 -15 -20 -40 0
1 -14 -15 -23 -29 0
1 -14 -15 -23 -38 0
1 -14 -15 -23 -40 0
1 -14 -15 -26 -29 0
1 -14 -15 -26 -38 0
1 -14 -15 -29 -30 0
1 -14 -15 -30 -38 0
1 -14 -16 -24 -30 0
1 -14 -16 -24 -41 0
1 -14 -16 -29 -30 0
1 -14 -16 -29 -41 0
1 -14 -16 -40 -41 0
1 -14 -18 -20 -26 0
1 -14 -18 -20 -30 0
1 -14 -18 -20 -40 0
1 -14 -20 -21 -30 0
1 -14 -20 -24 -30 0
1 -14 -20 -24 -41 0
1 -14 -20 -26 -41 0
1 -14 -20 -40 -41 0
1 -14 -21 -29 -30 0
1 -14 -21 -30 -33 0
1 -14 -23 -29 -41 0
1 -14 -23 -38 -41 0
1 -14 -23 -40 -41 0
1 -14 -24 -30 -33 0
1 -14 -24 -33 -41 0
1 -14 -26 -29 -41 0
1 -14 -26 -33 -41 0
1 -14 -26 -38 -41 0
1 -14 -33 -40 -41 0
1 -15 -20 -26 -31 0
1 -15 -20 -30 -31 0
1 -15 -20 -30 -42 0
1 -15 -20 -31 -36 0
1 -15 -20 -36 -40 0
1 -15 -20 -36 -42 0
1 -15 -23 -29 -31 0
1 -15 -23 -31 -36 0
1 -15 -23 -31 -38 0
1 -15 -23 -36 -40 0
1 -15 -23 -36 -42 0
1 -15 -26 -29 -31 0
1 -15 -26 -31 -38 0
1 -15 -29 -30 -31 0
1 -15 -29 -30 -32 0
1 -15 -30 -31 -38 0
1 -15 -30 -32 -38 0
1 -15 -30 -32 -42 0
1 -15 -32 -36 -42 0
1 -15 -36 -39 -42 0
1 -16 -19 -25 -32 0
1 -16 -19 -29 -32 0
1 -16 -19 -29 -41 0
1 -16 -19 -32 -35 0
1 -16 -19 -35 -39 0
1 -16 -19 -35 -41 0
1 -16 -24 -30 -32 0
1 -16 -24 -32 -35 0
1 -16 -24 -32 -37 0
1 -16 -24 -35 -39 0
1 -16 -24 -35 -41 0
1 -16 -25 -30 -32 0
1 -16 -25 -32 -37 0
1 -16 -29 -30 -31 0
1 -16 -29 -30 -32 0
1 -16 -29 -31 -37 0
1 -16 -29 -31 -41 0
1 -16 -29 -32 -37 0
1 -16 -31 -35 -41 0
1 -16 -35 -40 -41 0
1 -17 -18 -27 -28 0
1 -17 -19 -21 -25 0
1 -17 -19 -21 -29 0
1 -17 -19 -21 -35 0
1 -17 -19 -27 -29 0
1 -17 -19 -29 -41 0
1 -17 -19 -35 -39 0
1 -17 -19 -35 -41 0
1 -17 -21 -28 -35 0
1 -17 -21 -33 -35 0
1 -17 -27 -29 -31 0
1 -17 -28 -35 -39 0
1 -17 -28 -35 -41 0
1 -17 -29 -31 -41 0
1 -17 -31 -35 -41 0
1 -17 -33 -35 -39 0
1 -17 -33 -35 -41 0
1 -18 -20 -22 -26 0
1 -18 -20 -22 -30 0
1 -18 -20 -22 -36 0
1 -18 -20 -28 -30 0
1 -18 -20 -30 -42 0
1 -18 -20 -36 -40 0
1 -18 -20 -36 -42 0
1 -18 -22 -27 -36 0
1 -18 -22 -34 -36 0
1 -18 -27 -36 -40 0
1 -18 -27 -36 -42 0
1 -18 -28 -30 -32 0
1 -18 -30 -32 -42 0
1 -18 -32 -36 -42 0
1 -18 -34 -36 -40 0
1 -18 -34 -36 -42 0
1 -19 -20 -41 -42 0
1 -19 -21 -25 -32 0
1 -19 -21 -29 -32 0
1 -19 -21 -32 -35 0
1 -19 -22 -27 -29 0
1 -19 -23 -27 -29 0
1 -19 -23 -27 -42 0
1 -19 -23 -29 -41 0
1 -19 -23 -41 -42 0
1 -19 -25 -32 -42 0
1 -19 -32 -35 -42 0
1 -19 -35 -39 -42 0
1 -19 -35 -41 -42 0
1 -20 -21 -28 -30 0
1 -20 -22 -26 -31 0
1 -20 -22 -30 -31 0
1 -20 -22 -31 -36 0
1 -20 -24 -28 -30 0
1 -20 -24 -28 -41 0
1 -20 -24 -30 -42 0
1 -20 -24 -41 -42 0
1 -20 -26 -31 -41 0
1 -20 -31 -36 -41 0
1 -20 -36 -40 -41 0
1 -20 -36 -41 -42 0
1 -21 -25 -30 -32 0
1 -21 -25 -32 -37 0
1 -21 -28 -30 -32 0
1 -21 -28 -32 -35 0
1 -21 -28 -32 -37 0
1 -21 -29 -30 -32 0
1 -21 -29 -32 -37 0
1 -21 -30 -32 -33 0
1 -21 -32 -33 -35 0
1 -21 -32 -33 -37 0
1 -22 -26 -29 -31 0
1 -22 -26 -31 -38 0
1 -22 -27 -29 -31 0
1 -22 -27 -31 -36 0
1 -22 -27 -31 -38 0
1 -22 -29 -30 -31 0
1 -22 -29 -31 -34 0
1 -22 -30 -31 -38 0
1 -22 -31 -34 -36 0
1 -22 -31 -34 -38 0
1 -23 -27 -29 -31 0
1 -23 -27 -31 -36 0
1 -23 -27 -31 -38 0
1 -23 -27 -36 -40 0
1 -23 -27 -36 -42 0
1 -23 -29 -31 -34 0
1 -23 -29 -31 -41 0
1 -23 -31 -34 -36 0
1 -23 -31 -34 -38 0
1 -23 -31 -36 -41 0
1 -23 -31 -38 -41 0
1 -23 -34 -36 -40 0
1 -23 -34 -36 -42 0
1 -23 -36 -40 -41 0
1 -23 -36 -41 -42 0
1 -24 -28 -30 -32 0
1 -24 -28 -32 -35 0
1 -24 -28 -32 -37 0
1 -24 -28 -35 -39 0
1 -24 -28 -35 -41 0
1 -24 -30 -32 -33 0
1 -24 -30 -32 -42 0
1 -24 -32 -33 -35 0
1 -24 -32 -33 -37 0
1 -24 -32 -35 -42 0
1 -24 -32 -37 -42 0
1 -24 -33 -35 -39 0
1 -24 -33 -35 -41 0
1 -24 -35 -39 -42 0
1 -24 -35 -41 -42 0
1 -25 -30 -32 -38 0
1 -25 -30 -32 -42 0
1 -25 -32 -36 -42 0
1 -25 -32 -37 -42 0
1 -25 -34 -36 -42 0
1 -26 -29 -31 -37 0
1 -26 -29 -31 -41 0
1 -26 -31 -35 -41 0
1 -26 -31 -38 -41 0
1 -26 -33 -35 -41 0
1 -27 -29 -31 -37 0
1 -28 -30 -32 -38 0
1 -31 -35 -36 -41 0
1 -32 -35 -36 -42 0
1 -33 -35 -40 -41 0
1 -34 -36 -39 -42 0
1 -35 -36 -39 -42 0
1 -35 -36 -40 -41 0
1 -35 -36 -41 -42 0
1 1 2 7 9 0
1 1 2 7 29 0
1 1 2 7 30 0
1 1 2 7 31 0
1 1 2 8 10 0
1 1 2 8 29 0
1 1 2 8 30 0
1 1 2 8 32 0
1 1 2 9 11 0
1 1 2 9 32 0
1 1 2 10 12 0
1 1 2 10 31 0
1 1 2 11 12 0
1 1 2 11 18 0
1 1 2 11 30 0
1 1 2 12 17 0
1 1 2 12 29 0
1 1 2 17 30 0
1 1 2 17 32 0
1 1 2 18 29 0
1 1 2 18 31 0
1 1 2 31 32 0
1 1 3 7 13 0
1 1 3 7 29 0
1 1 3 7 30 0
1 1 3 8 10 0
1 1 3 8 29 0
1 1 3 8 30 0
1 1 3 8 32 0
1 1 3 10 12 0
1 1 3 10 13 0
1 1 3 10 15 0
1 1 3 12 23 0
1 1 3 12 29 0
1 1 3 12 34 0
1 1 3 13 18 0
1 1 3 13 32 0
1 1 3 15 18 0
1 1 3 15 34 0
1 1 3 18 23 0
1 1 3 18 29 0
1 1 3 23 30 0
1 1 3 23 32 0
1 1 3 30 34 0
1 1 3 32 34 0
1 1 5 7 9 0
1 1 5 7 30 0
1 1 5 7 31 0
1 1 5 7 38 0
1 1 5 8 10 0
1 1 5 8 30 0
1 1 5 8 32 0
1 1 5 8 38 0
1 1 5 9 11 0
1 1 5 9 15 0
1 1 5 9 32 0
1 1 5 10 12 0
1 1 5 10 15 0
1 1 5 10 31 0
1 1 5 11 12 0
1 1 5 11 18 0
1 1 5 11 30 0
1 1 5 12 34 0
1 1 5 12 38 0
1 1 5 15 18 0
1 1 5 15 34 0
1 1 5 18 31 0
1 1 5 18 38 0
1 1 5 30 34 0
1 1 5 31 32 0
1 1 5 32 34 0
1 1 7 9 41 0
1 1 7 13 31 0
1 1 7 13 38 0
1 1 7 13 41 0
1 1 7 29 38 0
1 1 7 30 41 0
1 1 8 10 39 0
1 1 8 29 38 0
1 1 8 29 39 0
1 1 8 30 39 0
1 1 8 32 39 0
1 1 9 11 23 0
1 1 9 11 41 0
1 1 9 15 41 0
1 1 9 23 32 0
1 1 9 32 41 0
1 1 10 12 41 0
1 1 10 13 31 0
1 1 10 13 41 0
1 1 10 15 41 0
1 1 10 31 39 0
1 1 10 39 41 0
1 1 11 12 23 0
1 1 11 12 41 0
1 1 11 18 23 0
1 1 11 18 41 0
1 1 11 23 30 0
1 1 11 30 41 0
1 1 12 17 23 0
1 1 12 17 34 0
1 1 12 17 38 0
1 1 12 29 38 0
1 1 12 34 41 0
1 1 13 18 31 0
1 1 13 18 38 0
1 1 13 18 41 0
1 1 13 31 32 0
1 1 13 32 41 0
1 1 15 17 34 0
1 1 15 18 41 0
1 1 15 34 41 0
1 1 17 23 30 0
1 1 17 23 32 0
1 1 17 30 34 0
1 1 17 32 34 0
1 1 18 23 39 0
1 1 18 29 38 0
1 1 18 29 39 0
1 1 18 31 39 0
1 1 18 39 41 0
1 1 23 30 39 0
1 1 23 32 39 0
1 1 30 34 41 0
1 1 30 39 41 0
1 1 31 32 39 0
1 1 32 34 41 0
1 1 32 39 41 0
1 2 4 7 9 0
1 2 4 7 29 0
1 2 4 7 30 0
1 2 4 7 31 0
1 2 4 8 14 0
1 2 4 8 29 0
1 2 4 8 30 0
1 2 4 9 11 0
1 2 4 9 14 0
1 2 4 9 16 0
1 2 4 11 24 0
1 2 4 11 30 0
1 2 4 11 33 0
1 2 4 14 17 0
1 2 4 14 31 0
1 2 4 16 17 0
1 2 4 16 33 0
1 2 4 17 24 0
1 2 4 17 30 0
1 2 4 24 29 0
1 2 4 24 31 0
1 2 4 29 33 0
1 2 4 31 33 0
1 2 6 7 9 0
1 2 6 7 29 0
1 2 6 7 31 0
1 2 6 7 37 0
1 2 6 8 10 0
1 2 6 8 29 0
1 2 6 8 32 0
1 2 6 8 37 0
1 2 6 9 11 0
1 2 6 9 16 0
1 2 6 9 32 0
1 2 6 10 12 0
1 2 6 10 16 0
1 2 6 10 31 0
1 2 6 11 12 0
1 2 6 11 33 0
1 2 6 11 37 0
1 2 6 12 17 0
1 2 6 12 29 0
1 2 6 16 17 0
1 2 6 16 33 0
1 2 6 17 32 0
1 2 6 17 37 0
1 2 6 29 33 0
1 2 6 31 32 0
1 2 6 31 33 0
1 2 7 9 40 0
1 2 7 29 40 0
1 2 7 30 37 0
1 2 7 30 40 0
1 2 7 31 40 0
1 2 8 10 42 0
1 2 8 14 32 0
1 2 8 14 37 0
1 2 8 14 42 0
1 2 8 29 42 0
1 2 8 30 37 0
1 2 9 11 42 0
1 2 9 14 32 0
1 2 9 14 42 0
1 2 9 16 42 0
1 2 9 32 40 0
1 2 9 40 42 0
1 2 10 12 24 0
1 2 10 12 42 0
1 2 10 16 42 0
1 2 10 24 31 0
1 2 10 31 42 0
1 2 11 12 24 0
1 2 11 12 42 0
1 2 11 18 24 0
1 2 11 18 33 0
1 2 11 18 37 0
1 2 11 30 37 0
1 2 11 33 42 0
1 2 12 17 24 0
1 2 12 17 42 0
1 2 12 24 29 0
1 2 12 29 42 0
1 2 14 17 32 0
1 2 14 17 37 0
1 2 14 17 42 0
1 2 14 31 32 0
1 2 14 31 42 0
1 2 16 17 42 0
1 2 16 18 33 0
1 2 16 33 42 0
1 2 17 24 40 0
1 2 17 30 37 0
1 2 17 30 40 0
1 2 17 32 40 0
1 2 17 40 42 0
1 2 18 24 29 0
1 2 18 24 31 0
1 2 18 29 33 0
1 2 18 31 33 0
1 2 24 29 40 0
1 2 24 31 40 0
1 2 29 33 42 0
1 2 29 40 42 0
1 2 31 32 40 0
1 2 31 33 42 0
1 2 31 40 42 0
1 3 4 7 13 0
1 3 4 7 22 0
1 3 4 7 29 0
1 3 4 7 30 0
1 3 4 8 14 0
1 3 4 8 21 0
1 3 4 8 29 0
1 3 4 8 30 0
1 3 4 13 14 0
1 3 4 13 21 0
1 3 4 13 33 0
1 3 4 14 22 0
1 3 4 14 34 0
1 3 4 21 22 0
1 3 4 29 33 0
1 3 4 30 34 0
1 3 7 13 26 0
1 3 7 13 35 0
1 3 7 22 35 0
1 3 7 26 30 0
1 3 7 29 35 0
1 3 7 30 35 0
1 3 8 10 21 0
1 3 8 10 28 0
1 3 8 14 28 0
1 3 8 14 32 0
1 3 8 14 35 0
1 3 8 21 26 0
1 3 8 26 28 0
1 3 8 26 30 0
1 3 8 26 32 0
1 3 8 28 29 0
1 3 8 29 35 0
1 3 8 30 35 0
1 3 10 12 20 0
1 3 10 12 21 0
1 3 10 12 28 0
1 3 10 13 20 0
1 3 10 13 21 0
1 3 10 13 28 0
1 3 10 15 21 0
1 3 10 15 28 0
1 3 12 20 23 0
1 3 12 20 29 0
1 3 12 20 34 0
1 3 12 21 23 0
1 3 12 23 28 0
1 3 12 28 29 0
1 3 12 28 34 0
1 3 13 14 28 0
1 3 13 14 32 0
1 3 13 14 35 0
1 3 13 18 21 0
1 3 13 18 33 0
1 3 13 18 35 0
1 3 13 20 32 0
1 3 13 20 33 0
1 3 13 20 35 0
1 3 13 21 26 0
1 3 13 26 28 0
1 3 13 26 32 0
1 3 13 28 33 0
1 3 14 22 28 0
1 3 14 22 32 0
1 3 14 22 35 0
1 3 14 28 34 0
1 3 14 32 34 0
1 3 14 34 35 0
1 3 15 18 21 0
1 3 15 18 33 0
1 3 15 18 35 0
1 3 15 21 22 0
1 3 15 22 28 0
1 3 15 22 35 0
1 3 15 28 33 0
1 3 15 28 34 0
1 3 15 34 35 0
1 3 18 21 23 0
1 3 18 23 33 0
1 3 18 23 35 0
1 3 18 29 33 0
1 3 18 29 35 0
1 3 20 23 32 0
1 3 20 23 33 0
1 3 20 23 35 0
1 3 20 29 33 0
1 3 20 29 35 0
1 3 20 32 34 0
1 3 20 34 35 0
1 3 21 22 23 0
1 3 21 23 26 0
1 3 22 23 28 0
1 3 22 23 32 0
1 3 22 23 35 0
1 3 23 26 28 0
1 3 23 26 30 0
1 3 23 26 32 0
1 3 23 28 33 0
1 3 23 30 35 0
1 3 26 28 34 0
1 3 26 30 34 0
1 3 26 32 34 0
1 3 28 29 33 0
1 3 30 34 35 0
1 4 7 9 22 0
1 4 7 9 27 0
1 4 7 13 27 0
1 4 7 13 31 0
1 4 7 13 36 0
1 4 7 22 25 0
1 4 7 25 27 0
1 4 7 25 29 0
1 4 7 25 31 0
1 4 7 27 30 0
1 4 7 29 36 0
1 4 7 30 36 0
1 4 8 14 25 0
1 4 8 14 36 0
1 4 8 21 36 0
1 4 8 25 29 0
1 4 8 29 36 0
1 4 8 30 36 0
1 4 9 11 19 0
1 4 9 11 22 0
1 4 9 11 27 0
1 4 9 14 19 0
1 4 9 14 22 0
1 4 9 14 27 0
1 4 9 16 22 0
1 4 9 16 27 0
1 4 11 19 24 0
1 4 11 19 30 0
1 4 11 19 33 0
1 4 11 22 24 0
1 4 11 24 27 0
1 4 11 27 30 0
1 4 11 27 33 0
1 4 13 14 27 0
1 4 13 14 31 0
1 4 13 14 36 0
1 4 13 21 27 0
1 4 13 21 31 0
1 4 13 21 36 0
1 4 13 27 33 0
1 4 13 31 33 0
1 4 13 33 36 0
1 4 14 17 22 0
1 4 14 17 34 0
1 4 14 17 36 0
1 4 14 19 31 0
1 4 14 19 34 0
1 4 14 19 36 0
1 4 14 22 25 0
1 4 14 25 27 0
1 4 14 25 31 0
1 4 14 27 34 0
1 4 16 17 22 0
1 4 16 17 34 0
1 4 16 17 36 0
1 4 16 21 22 0
1 4 16 21 27 0
1 4 16 21 36 0
1 4 16 27 33 0
1 4 16 27 34 0
1 4 16 33 36 0
1 4 17 22 24 0
1 4 17 24 34 0
1 4 17 24 36 0
1 4 17 30 34 0
1 4 17 30 36 0
1 4 19 24 31 0
1 4 19 24 34 0
1 4 19 24 36 0
1 4 19 30 34 0
1 4 19 30 36 0
1 4 19 31 33 0
1 4 19 33 36 0
1 4 21 22 24 0
1 4 21 24 27 0
1 4 21 24 31 0
1 4 21 24 36 0
1 4 22 24 25 0
1 4 24 25 27 0
1 4 24 25 29 0
1 4 24 25 31 0
1 4 24 27 34 0
1 4 24 29 36 0
1 4 25 27 33 0
1 4 25 29 33 0
1 4 25 31 33 0
1 4 27 30 34 0
1 4 29 33 36 0
1 5 7 9 35 0
1 5 7 9 40 0
1 5 7 30 35 0
1 5 7 30 36 0
1 5 7 30 40 0
1 5 7 31 40 0
1 5 7 35 38 0
1 5 7 36 38 0
1 5 7 38 40 0
1 5 8 10 36 0
1 5 8 10 42 0
1 5 8 14 32 0
1 5 8 14 35 0
1 5 8 14 36 0
1 5 8 14 42 0
1 5 8 30 35 0
1 5 8 30 36 0
1 5 8 35 38 0
1 5 8 36 38 0
1 5 8 38 42 0
1 5 9 11 19 0
1 5 9 11 20 0
1 5 9 11 42 0
1 5 9 14 19 0
1 5 9 14 32 0
1 5 9 14 35 0
1 5 9 14 42 0
1 5 9 15 16 0
1 5 9 15 19 0
1 5 9 15 35 0
1 5 9 16 20 0
1 5 9 16 42 0
1 5 9 19 40 0
1 5 9 20 32 0
1 5 9 20 35 0
1 5 9 32 40 0
1 5 9 40 42 0
1 5 10 12 19 0
1 5 10 12 20 0
1 5 10 12 42 0
1 5 10 15 16 0
1 5 10 15 19 0
1 5 10 16 20 0
1 5 10 16 36 0
1 5 10 16 42 0
1 5 10 19 31 0
1 5 10 19 36 0
1 5 10 31 42 0
1 5 11 12 19 0
1 5 11 12 20 0
1 5 11 12 42 0
1 5 11 18 19 0
1 5 11 19 30 0
1 5 12 19 34 0
1 5 12 19 38 0
1 5 12 20 34 0
1 5 12 20 38 0
1 5 12 38 42 0
1 5 14 19 31 0
1 5 14 19 34 0
1 5 14 19 36 0
1 5 14 31 32 0
1 5 14 31 42 0
1 5 14 32 34 0
1 5 14 34 35 0
1 5 15 16 18 0
1 5 15 16 34 0
1 5 15 18 19 0
1 5 15 18 35 0
1 5 15 19 34 0
1 5 15 34 35 0
1 5 16 18 38 0
1 5 16 20 34 0
1 5 16 20 38 0
1 5 16 36 38 0
1 5 16 38 42 0
1 5 18 19 31 0
1 5 18 19 38 0
1 5 18 35 38 0
1 5 19 30 34 0
1 5 19 30 36 0
1 5 19 30 40 0
1 5 19 31 40 0
1 5 19 36 38 0
1 5 19 38 40 0
1 5 20 32 34 0
1 5 20 34 35 0
1 5 20 35 38 0
1 5 30 34 35 0
1 5 31 32 40 0
1 5 31 40 42 0
1 5 38 40 42 0
1 6 7 9 35 0
1 6 7 9 41 0
1 6 7 13 31 0
1 6 7 13 35 0
1 6 7 13 36 0
1 6 7 13 41 0
1 6 7 29 35 0
1 6 7 29 36 0
1 6 7 35 37 0
1 6 7 36 37 0
1 6 7 37 41 0
1 6 8 10 36 0
1 6 8 10 39 0
1 6 8 29 35 0
1 6 8 29 36 0
1 6 8 29 39 0
1 6 8 32 39 0
1 6 8 35 37 0
1 6 8 36 37 0
1 6 8 37 39 0
1 6 9 11 19 0
1 6 9 11 20 0
1 6 9 11 41 0
1 6 9 15 16 0
1 6 9 15 19 0
1 6 9 15 35 0
1 6 9 15 41 0
1 6 9 16 20 0
1 6 9 20 32 0
1 6 9 20 35 0
1 6 9 32 41 0
1 6 10 12 19 0
1 6 10 12 20 0
1 6 10 12 41 0
1 6 10 13 20 0
1 6 10 13 31 0
1 6 10 13 36 0
1 6 10 13 41 0
1 6 10 15 16 0
1 6 10 15 19 0
1 6 10 15 41 0
1 6 10 16 20 0
1 6 10 16 36 0
1 6 10 19 31 0
1 6 10 19 36 0
1 6 10 20 39 0
1 6 10 31 39 0
1 6 10 39 41 0
1 6 11 12 19 0
1 6 11 12 20 0
1 6 11 12 41 0
1 6 11 19 33 0
1 6 11 19 37 0
1 6 11 20 33 0
1 6 11 20 37 0
1 6 11 37 41 0
1 6 12 17 20 0
1 6 12 20 29 0
1 6 13 20 32 0
1 6 13 20 33 0
1 6 13 20 35 0
1 6 13 31 32 0
1 6 13 31 33 0
1 6 13 32 41 0
1 6 13 33 36 0
1 6 15 16 17 0
1 6 15 16 33 0
1 6 15 17 37 0
1 6 15 19 33 0
1 6 15 19 37 0
1 6 15 35 37 0
1 6 15 37 41 0
1 6 16 17 20 0
1 6 16 17 36 0
1 6 16 20 33 0
1 6 16 33 36 0
1 6 17 20 32 0
1 6 17 20 37 0
1 6 17 36 37 0
1 6 19 31 33 0
1 6 19 33 36 0
1 6 19 36 37 0
1 6 20 29 33 0
1 6 20 29 35 0
1 6 20 29 39 0
1 6 20 32 39 0
1 6 20 35 37 0
1 6 20 37 39 0
1 6 29 33 36 0
1 6 31 32 39 0
1 6 32 39 41 0
1 6 37 39 41 0
1 7 9 22 35 0
1 7 9 22 40 0
1 7 9 22 41 0
1 7 9 26 27 0
1 7 9 26 40 0
1 7 9 27 35 0
1 7 9 27 41 0
1 7 13 26 27 0
1 7 13 26 36 0
1 7 13 26 40 0
1 7 13 27 35 0
1 7 13 27 41 0
1 7 13 31 40 0
1 7 13 35 38 0
1 7 13 36 38 0
1 7 13 38 40 0
1 7 22 25 35 0
1 7 22 25 40 0
1 7 22 25 41 0
1 7 22 35 37 0
1 7 22 37 41 0
1 7 25 27 35 0
1 7 25 27 41 0
1 7 25 29 35 0
1 7 25 29 40 0
1 7 25 31 40 0
1 7 26 27 30 0
1 7 26 30 36 0
1 7 26 30 40 0
1 7 27 30 35 0
1 7 27 30 41 0
1 7 29 35 38 0
1 7 29 36 38 0
1 7 29 38 40 0
1 7 30 35 37 0
1 7 30 36 37 0
1 7 30 37 41 0
1 7 35 37 38 0
1 7 36 37 38 0
1 8 10 21 36 0
1 8 10 21 39 0
1 8 10 21 42 0
1 8 10 25 28 0
1 8 10 25 39 0
1 8 10 28 36 0
1 8 10 28 42 0
1 8 14 25 28 0
1 8 14 25 35 0
1 8 14 25 39 0
1 8 14 28 36 0
1 8 14 28 42 0
1 8 14 32 39 0
1 8 14 35 37 0
1 8 14 36 37 0
1 8 14 37 39 0
1 8 21 26 36 0
1 8 21 26 39 0
1 8 21 26 42 0
1 8 21 36 38 0
1 8 21 38 42 0
1 8 25 28 29 0
1 8 25 29 35 0
1 8 25 29 39 0
1 8 26 28 36 0
1 8 26 28 42 0
1 8 26 30 36 0
1 8 26 30 39 0
1 8 26 32 39 0
1 8 28 29 36 0
1 8 28 29 42 0
1 8 29 35 38 0
1 8 29 36 38 0
1 8 29 38 42 0
1 8 30 35 37 0
1 8 30 36 37 0
1 8 30 37 39 0
1 8 35 37 38 0
1 8 36 37 38 0
1 9 11 19 26 0
1 9 11 20 23 0
1 9 11 20 27 0
1 9 11 22 23 0
1 9 11 22 41 0
1 9 11 22 42 0
1 9 11 23 26 0
1 9 11 26 27 0
1 9 11 26 42 0
1 9 11 27 41 0
1 9 14 22 32 0
1 9 14 22 35 0
1 9 14 22 42 0
1 9 14 27 32 0
1 9 14 27 35 0
1 9 15 16 22 0
1 9 15 16 27 0
1 9 15 22 35 0
1 9 15 22 41 0
1 9 15 27 35 0
1 9 15 27 41 0
1 9 16 20 23 0
1 9 16 20 27 0
1 9 16 22 23 0
1 9 16 22 42 0
1 9 16 23 26 0
1 9 16 26 27 0
1 9 16 26 42 0
1 9 19 26 40 0
1 9 20 23 32 0
1 9 20 23 35 0
1 9 20 27 32 0
1 9 20 27 35 0
1 9 22 23 32 0
1 9 22 23 35 0
1 9 22 32 40 0
1 9 22 32 41 0
1 9 22 40 42 0
1 9 23 26 32 0
1 9 26 27 32 0
1 9 26 32 40 0
1 9 26 40 42 0
1 9 27 32 41 0
1 10 12 19 24 0
1 10 12 19 28 0
1 10 12 20 25 0
1 10 12 21 24 0
1 10 12 21 41 0
1 10 12 21 42 0
1 10 12 24 25 0
1 10 12 25 28 0
1 10 12 25 41 0
1 10 12 28 42 0
1 10 13 21 31 0
1 10 13 21 36 0
1 10 13 21 41 0
1 10 13 28 31 0
1 10 13 28 36 0
1 10 15 16 21 0
1 10 15 16 28 0
1 10 15 19 24 0
1 10 15 19 28 0
1 10 15 21 24 0
1 10 15 21 41 0
1 10 15 24 25 0
1 10 15 25 28 0
1 10 15 25 41 0
1 10 16 21 36 0
1 10 16 21 42 0
1 10 16 28 36 0
1 10 16 28 42 0
1 10 19 24 31 0
1 10 19 24 36 0
1 10 19 28 31 0
1 10 19 28 36 0
1 10 20 25 39 0
1 10 21 24 31 0
1 10 21 24 36 0
1 10 21 31 39 0
1 10 21 31 42 0
1 10 21 39 41 0
1 10 24 25 31 0
1 10 25 28 31 0
1 10 25 31 39 0
1 10 25 39 41 0
1 10 28 31 42 0
1 11 12 19 24 0
1 11 12 19 28 0
1 11 12 20 23 0
1 11 12 20 27 0
1 11 12 23 24 0
1 11 12 23 28 0
1 11 12 24 27 0
1 11 12 27 41 0
1 11 12 28 42 0
1 11 18 19 24 0
1 11 18 19 33 0
1 11 18 19 37 0
1 11 18 23 24 0
1 11 18 23 33 0
1 11 18 23 37 0
1 11 18 37 41 0
1 11 19 24 26 0
1 11 19 26 28 0
1 11 19 26 30 0
1 11 19 28 33 0
1 11 19 30 37 0
1 11 20 23 33 0
1 11 20 23 37 0
1 11 20 27 33 0
1 11 22 23 24 0
1 11 22 23 28 0
1 11 22 23 37 0
1 11 22 28 42 0
1 11 22 37 41 0
1 11 23 24 26 0
1 11 23 26 28 0
1 11 23 26 30 0
1 11 23 28 33 0
1 11 23 30 37 0
1 11 24 26 27 0
1 11 26 27 30 0
1 11 26 28 42 0
1 11 27 30 41 0
1 11 28 33 42 0
1 11 30 37 41 0
1 12 17 20 23 0
1 12 17 20 34 0
1 12 17 20 38 0
1 12 17 23 24 0
1 12 17 24 34 0
1 12 17 24 38 0
1 12 17 38 42 0
1 12 19 24 34 0
1 12 19 24 38 0
1 12 19 28 34 0
1 12 20 23 25 0
1 12 20 25 27 0
1 12 20 25 29 0
1 12 20 27 34 0
1 12 20 29 38 0
1 12 21 23 24 0
1 12 21 24 27 0
1 12 21 24 38 0
1 12 21 27 41 0
1 12 21 38 42 0
1 12 23 24 25 0
1 12 23 25 28 0
1 12 24 25 27 0
1 12 24 25 29 0
1 12 24 27 34 0
1 12 24 29 38 0
1 12 25 27 41 0
1 12 25 28 29 0
1 12 27 34 41 0
1 12 28 29 42 0
1 12 29 38 42 0
1 13 14 27 32 0
1 13 14 27 35 0
1 13 14 28 31 0
1 13 14 28 36 0
1 13 14 31 32 0
1 13 18 21 31 0
1 13 18 21 38 0
1 13 18 21 41 0
1 13 18 31 33 0
1 13 18 33 38 0
1 13 18 35 38 0
1 13 20 27 32 0
1 13 20 27 33 0
1 13 20 27 35 0
1 13 20 33 38 0
1 13 20 35 38 0
1 13 21 26 27 0
1 13 21 26 36 0
1 13 21 26 40 0
1 13 21 27 41 0
1 13 21 31 40 0
1 13 21 36 38 0
1 13 21 38 40 0
1 13 26 27 32 0
1 13 26 28 36 0
1 13 26 28 40 0
1 13 26 32 40 0
1 13 27 32 41 0
1 13 28 31 33 0
1 13 28 31 40 0
1 13 28 33 36 0
1 13 31 32 40 0
1 13 33 36 38 0
1 14 17 22 32 0
1 14 17 22 37 0
1 14 17 22 42 0
1 14 17 32 34 0
1 14 17 34 37 0
1 14 17 36 37 0
1 14 19 28 31 0
1 14 19 28 34 0
1 14 19 28 36 0
1 14 19 34 37 0
1 14 19 36 37 0
1 14 22 25 28 0
1 14 22 25 35 0
1 14 22 25 39 0
1 14 22 28 42 0
1 14 22 32 39 0
1 14 22 35 37 0
1 14 22 37 39 0
1 14 25 27 35 0
1 14 25 27 39 0
1 14 25 28 31 0
1 14 25 31 39 0
1 14 27 32 34 0
1 14 27 32 39 0
1 14 27 34 35 0
1 14 28 31 42 0
1 14 31 32 39 0
1 14 34 35 37 0
1 15 16 17 22 0
1 15 16 17 34 0
1 15 16 18 21 0
1 15 16 18 33 0
1 15 16 21 22 0
1 15 16 21 27 0
1 15 16 22 28 0
1 15 16 27 33 0
1 15 16 27 34 0
1 15 16 28 33 0
1 15 16 28 34 0
1 15 17 22 24 0
1 15 17 22 37 0
1 15 17 24 34 0
1 15 17 34 37 0
1 15 18 19 24 0
1 15 18 19 33 0
1 15 18 19 37 0
1 15 18 21 24 0
1 15 18 21 41 0
1 15 18 24 25 0
1 15 18 25 33 0
1 15 18 25 35 0
1 15 18 25 41 0
1 15 18 35 37 0
1 15 18 37 41 0
1 15 19 24 34 0
1 15 19 28 33 0
1 15 19 28 34 0
1 15 19 34 37 0
1 15 21 22 24 0
1 15 21 22 41 0
1 15 21 24 27 0
1 15 21 27 41 0
1 15 22 24 25 0
1 15 22 25 28 0
1 15 22 25 35 0
1 15 22 25 41 0
1 15 22 35 37 0
1 15 22 37 41 0
1 15 24 25 27 0
1 15 24 27 34 0
1 15 25 27 33 0
1 15 25 27 35 0
1 15 25 27 41 0
1 15 25 28 33 0
1 15 27 34 35 0
1 15 27 34 41 0
1 15 34 35 37 0
1 15 34 37 41 0
1 16 17 20 23 0
1 16 17 20 34 0
1 16 17 20 38 0
1 16 17 22 23 0
1 16 17 22 42 0
1 16 17 23 26 0
1 16 17 26 34 0
1 16 17 26 36 0
1 16 17 26 42 0
1 16 17 36 38 0
1 16 17 38 42 0
1 16 18 21 23 0
1 16 18 21 38 0
1 16 18 23 33 0
1 16 18 33 38 0
1 16 20 23 33 0
1 16 20 27 33 0
1 16 20 27 34 0
1 16 20 33 38 0
1 16 21 22 23 0
1 16 21 22 42 0
1 16 21 23 26 0
1 16 21 26 27 0
1 16 21 26 36 0
1 16 21 26 42 0
1 16 21 36 38 0
1 16 21 38 42 0
1 16 22 23 28 0
1 16 22 28 42 0
1 16 23 26 28 0
1 16 23 28 33 0
1 16 26 27 34 0
1 16 26 28 34 0
1 16 26 28 36 0
1 16 26 28 42 0
1 16 28 33 36 0
1 16 28 33 42 0
1 16 33 36 38 0
1 16 33 38 42 0
1 17 20 23 32 0
1 17 20 23 37 0
1 17 20 32 34 0
1 17 20 34 37 0
1 17 20 37 38 0
1 17 22 23 24 0
1 17 22 23 32 0
1 17 22 23 37 0
1 17 22 24 40 0
1 17 22 32 40 0
1 17 22 40 42 0
1 17 23 24 26 0
1 17 23 26 30 0
1 17 23 26 32 0
1 17 23 30 37 0
1 17 24 26 34 0
1 17 24 26 36 0
1 17 24 26 40 0
1 17 24 36 38 0
1 17 24 38 40 0
1 17 26 30 34 0
1 17 26 30 36 0
1 17 26 30 40 0
1 17 26 32 34 0
1 17 26 32 40 0
1 17 26 40 42 0
1 17 30 34 37 0
1 17 30 36 37 0
1 17 36 37 38 0
1 17 38 40 42 0
1 18 19 24 31 0
1 18 19 24 38 0
1 18 19 31 33 0
1 18 19 33 38 0
1 18 19 37 38 0
1 18 21 23 24 0
1 18 21 23 39 0
1 18 21 24 31 0
1 18 21 24 38 0
1 18 21 31 39 0
1 18 21 39 41 0
1 18 23 24 25 0
1 18 23 25 33 0
1 18 23 25 35 0
1 18 23 25 39 0
1 18 23 35 37 0
1 18 23 37 39 0
1 18 24 25 29 0
1 18 24 25 31 0
1 18 24 29 38 0
1 18 25 29 33 0
1 18 25 29 35 0
1 18 25 29 39 0
1 18 25 31 33 0
1 18 25 31 39 0
1 18 25 39 41 0
1 18 29 33 38 0
1 18 29 35 38 0
1 18 35 37 38 0
1 18 37 39 41 0
1 19 24 26 34 0
1 19 24 26 36 0
1 19 24 26 40 0
1 19 24 31 40 0
1 19 24 36 38 0
1 19 24 38 40 0
1 19 26 28 34 0
1 19 26 28 36 0
1 19 26 28 40 0
1 19 26 30 34 0
1 19 26 30 36 0
1 19 26 30 40 0
1 19 28 31 33 0
1 19 28 31 40 0
1 19 28 33 36 0
1 19 30 34 37 0
1 19 30 36 37 0
1 19 33 36 38 0
1 19 36 37 38 0
1 20 23 25 33 0
1 20 23 25 35 0
1 20 23 25 39 0
1 20 23 32 39 0
1 20 23 35 37 0
1 20 23 37 39 0
1 20 25 27 33 0
1 20 25 27 35 0
1 20 25 27 39 0
1 20 25 29 33 0
1 20 25 29 35 0
1 20 25 29 39 0
1 20 27 32 34 0
1 20 27 32 39 0
1 20 27 34 35 0
1 20 29 33 38 0
1 20 29 35 38 0
1 20 34 35 37 0
1 20 35 37 38 0
1 21 22 23 24 0
1 21 22 23 39 0
1 21 22 24 40 0
1 21 22 39 40 0
1 21 22 39 41 0
1 21 22 40 42 0
1 21 23 24 26 0
1 21 23 26 39 0
1 21 24 26 27 0
1 21 24 26 36 0
1 21 24 26 40 0
1 21 24 31 40 0
1 21 24 36 38 0
1 21 24 38 40 0
1 21 26 27 39 0
1 21 26 39 40 0
1 21 26 40 42 0
1 21 27 39 41 0
1 21 31 39 40 0
1 21 31 40 42 0
1 21 38 40 42 0
1 22 23 24 25 0
1 22 23 25 28 0
1 22 23 25 35 0
1 22 23 25 39 0
1 22 23 32 39 0
1 22 23 35 37 0
1 22 23 37 39 0
1 22 24 25 40 0
1 22 25 28 40 0
1 22 25 39 40 0
1 22 25 39 41 0
1 22 28 40 42 0
1 22 32 39 40 0
1 22 32 39 41 0
1 22 37 39 41 0
1 23 25 28 33 0
1 23 26 30 39 0
1 23 26 32 39 0
1 23 30 35 37 0
1 23 30 37 39 0
1 24 25 29 40 0
1 24 25 31 40 0
1 24 26 27 34 0
1 24 29 36 38 0
1 24 29 38 40 0
1 25 27 39 41 0
1 25 28 29 33 0
1 25 28 29 40 0
1 25 28 31 33 0
1 25 28 31 40 0
1 25 29 39 40 0
1 25 31 39 40 0
1 26 27 30 34 0
1 26 27 30 39 0
1 26 27 32 34 0
1 26 27 32 39 0
1 26 28 40 42 0
1 26 30 39 40 0
1 26 32 39 40 0
1 27 30 34 35 0
1 27 30 34 41 0
1 27 30 39 41 0
1 27 32 34 41 0
1 27 32 39 41 0
1 28 29 33 36 0
1 28 29 33 42 0
1 28 29 40 42 0
1 28 31 33 42 0
1 28 31 40 42 0
1 29 33 36 38 0
1 29 33 38 42 0
1 29 38 40 42 0
1 30 34 35 37 0
1 30 34 37 41 0
1 30 37 39 41 0
1 31 32 39 40 0
